NAME : portgen-21-190
COMMENT : portgen N=21, seed=190
TYPE : TSP
DIMENSION : 21
EDGE_WEIGHT_TYPE : EUC_2D
NODE_COORD_SECTION
1 314375 651620
2 932812 412279
3 807898 585351
4 899165 114704
5 468792 303331
6 649234 653297
7 925737 540358
8 719826 90203
9 26231 854665
10 247067 973057
11 606893 112375
12 10726 262463
13 265835 211198
14 550154 314549
15 100302 881349
16 518036 842550
17 94154 687386
18 870779 861582
19 16093 203019
20 941816 588194
21 828634 296029
